<?xml version="1.0" encoding="UTF-8"?><osil xmlns="os.optimizationservices.org"   xmlns:xsi="http://www.w3.org/2001/XMLSchema-instance" xsi:schemaLocation="os.optimizationservices.org http://www.optimizationservices.org/schemas/2.0/OSiL.xsd" ><instanceHeader><name>q_40_0_50_4</name></instanceHeader><instanceData><variables numberOfVariables="40"><var name="x1" ub="1"/><var name="x2" ub="1"/><var name="x3" ub="1"/><var name="x4" ub="1"/><var name="x5" ub="1"/><var name="x6" ub="1"/><var name="x7" ub="1"/><var name="x8" ub="1"/><var name="x9" ub="1"/><var name="x10" ub="1"/><var name="x11" ub="1"/><var name="x12" ub="1"/><var name="x13" ub="1"/><var name="x14" ub="1"/><var name="x15" ub="1"/><var name="x16" ub="1"/><var name="x17" ub="1"/><var name="x18" ub="1"/><var name="x19" ub="1"/><var name="x20" ub="1"/><var name="x21" ub="1"/><var name="x22" ub="1"/><var name="x23" ub="1"/><var name="x24" ub="1"/><var name="x25" ub="1"/><var name="x26" ub="1"/><var name="x27" ub="1"/><var name="x28" ub="1"/><var name="x29" ub="1"/><var name="x30" ub="1"/><var name="x31" ub="1"/><var name="x32" ub="1"/><var name="x33" ub="1"/><var name="x34" ub="1"/><var name="x35" ub="1"/><var name="x36" ub="1"/><var name="x37" ub="1"/><var name="x38" ub="1"/><var name="x39" ub="1"/><var name="x40" ub="1"/></variables><objectives numberOfObjectives="1"><obj maxOrMin="min" name="defObj_x41" numberOfObjCoef="40"><coef idx="0">-.898</coef><coef idx="1">-.7569</coef><coef idx="2">4.46e-2</coef><coef idx="3">-.9005</coef><coef idx="4">-.5285</coef><coef idx="5">-.8968</coef><coef idx="6">-.647</coef><coef idx="7">-.8792</coef><coef idx="8">-.9868</coef><coef idx="9">.3686</coef><coef idx="10">-.5864</coef><coef idx="11">.8461</coef><coef idx="12">-.7498</coef><coef idx="13">-.5895</coef><coef idx="14">.251</coef><coef idx="15">-.8266</coef><coef idx="16">-8.62e-2</coef><coef idx="17">.8077</coef><coef idx="18">.3843</coef><coef idx="19">.9572</coef><coef idx="20">-.2945</coef><coef idx="21">-.8633</coef><coef idx="22">-.2721</coef><coef idx="23">-.4258</coef><coef idx="24">-.8056</coef><coef idx="25">-.2328</coef><coef idx="26">-2.4e-3</coef><coef idx="27">-.2759</coef><coef idx="28">.626</coef><coef idx="29">-.8293</coef><coef idx="30">-.8541</coef><coef idx="31">.8975</coef><coef idx="32">-2.23e-2</coef><coef idx="33">.4264</coef><coef idx="34">-.7743</coef><coef idx="35">-.6536</coef><coef idx="36">.9198</coef><coef idx="37">.801</coef><coef idx="38">-.4839</coef><coef idx="39">-.8656</coef></obj></objectives><quadraticCoefficients  numberOfQuadraticTerms="410" ><qTerm  idx="-1"  idxOne="0"  idxTwo="2"  coef="-.7149"/><qTerm  idx="-1"  idxOne="0"  idxTwo="5"  coef="-.9809"/><qTerm  idx="-1"  idxOne="0"  idxTwo="6"  coef=".3823"/><qTerm  idx="-1"  idxOne="0"  idxTwo="13"  coef="1.3342"/><qTerm  idx="-1"  idxOne="0"  idxTwo="19"  coef="1.2258"/><qTerm  idx="-1"  idxOne="0"  idxTwo="24"  coef="1.3531"/><qTerm  idx="-1"  idxOne="0"  idxTwo="31"  coef="1.8351"/><qTerm  idx="-1"  idxOne="0"  idxTwo="33"  coef="-1.6596"/><qTerm  idx="-1"  idxOne="0"  idxTwo="37"  coef=".7759"/><qTerm  idx="-1"  idxOne="0"  idxTwo="38"  coef="1.2099"/><qTerm  idx="-1"  idxOne="1"  idxTwo="1"  coef="-.2781"/><qTerm  idx="-1"  idxOne="1"  idxTwo="2"  coef=".1987"/><qTerm  idx="-1"  idxOne="1"  idxTwo="3"  coef="4.91e-2"/><qTerm  idx="-1"  idxOne="1"  idxTwo="4"  coef="-.9376"/><qTerm  idx="-1"  idxOne="1"  idxTwo="5"  coef="1.8378"/><qTerm  idx="-1"  idxOne="1"  idxTwo="6"  coef=".3976"/><qTerm  idx="-1"  idxOne="1"  idxTwo="7"  coef="-1.0756"/><qTerm  idx="-1"  idxOne="1"  idxTwo="8"  coef=".2897"/><qTerm  idx="-1"  idxOne="1"  idxTwo="9"  coef="-.6032"/><qTerm  idx="-1"  idxOne="1"  idxTwo="10"  coef="1.5136"/><qTerm  idx="-1"  idxOne="1"  idxTwo="13"  coef=".6881"/><qTerm  idx="-1"  idxOne="1"  idxTwo="15"  coef="-1.6115"/><qTerm  idx="-1"  idxOne="1"  idxTwo="19"  coef="-.8333"/><qTerm  idx="-1"  idxOne="1"  idxTwo="23"  coef="1.1653"/><qTerm  idx="-1"  idxOne="1"  idxTwo="26"  coef="-.6818"/><qTerm  idx="-1"  idxOne="1"  idxTwo="27"  coef="1.0003"/><qTerm  idx="-1"  idxOne="1"  idxTwo="29"  coef="1.6009"/><qTerm  idx="-1"  idxOne="1"  idxTwo="31"  coef="-1.3369"/><qTerm  idx="-1"  idxOne="1"  idxTwo="32"  coef=".5304"/><qTerm  idx="-1"  idxOne="1"  idxTwo="33"  coef="-1.5996"/><qTerm  idx="-1"  idxOne="1"  idxTwo="34"  coef="1.7189"/><qTerm  idx="-1"  idxOne="1"  idxTwo="35"  coef="-.3294"/><qTerm  idx="-1"  idxOne="1"  idxTwo="36"  coef="1.4421"/><qTerm  idx="-1"  idxOne="1"  idxTwo="37"  coef=".4176"/><qTerm  idx="-1"  idxOne="1"  idxTwo="38"  coef="1.6671"/><qTerm  idx="-1"  idxOne="2"  idxTwo="2"  coef="-1.4121"/><qTerm  idx="-1"  idxOne="2"  idxTwo="3"  coef=".2946"/><qTerm  idx="-1"  idxOne="2"  idxTwo="4"  coef=".1862"/><qTerm  idx="-1"  idxOne="2"  idxTwo="5"  coef="-.821"/><qTerm  idx="-1"  idxOne="2"  idxTwo="6"  coef="1.5901"/><qTerm  idx="-1"  idxOne="2"  idxTwo="7"  coef="-6.8e-2"/><qTerm  idx="-1"  idxOne="2"  idxTwo="9"  coef=".708"/><qTerm  idx="-1"  idxOne="2"  idxTwo="10"  coef="1.6556"/><qTerm  idx="-1"  idxOne="2"  idxTwo="12"  coef="-.7942"/><qTerm  idx="-1"  idxOne="2"  idxTwo="13"  coef=".1785"/><qTerm  idx="-1"  idxOne="2"  idxTwo="16"  coef="-1.7732"/><qTerm  idx="-1"  idxOne="2"  idxTwo="18"  coef="-1.0619"/><qTerm  idx="-1"  idxOne="2"  idxTwo="20"  coef=".9384"/><qTerm  idx="-1"  idxOne="2"  idxTwo="21"  coef="-.767"/><qTerm  idx="-1"  idxOne="2"  idxTwo="26"  coef="-.4049"/><qTerm  idx="-1"  idxOne="2"  idxTwo="27"  coef=".8457"/><qTerm  idx="-1"  idxOne="2"  idxTwo="30"  coef="1.2146"/><qTerm  idx="-1"  idxOne="2"  idxTwo="31"  coef=".8172"/><qTerm  idx="-1"  idxOne="2"  idxTwo="33"  coef="1.6815"/><qTerm  idx="-1"  idxOne="2"  idxTwo="36"  coef="-1.2746"/><qTerm  idx="-1"  idxOne="2"  idxTwo="37"  coef="1.0565"/><qTerm  idx="-1"  idxOne="2"  idxTwo="38"  coef="-.1914"/><qTerm  idx="-1"  idxOne="3"  idxTwo="3"  coef="-1.4279"/><qTerm  idx="-1"  idxOne="3"  idxTwo="6"  coef="-1.6038"/><qTerm  idx="-1"  idxOne="3"  idxTwo="7"  coef=".4095"/><qTerm  idx="-1"  idxOne="3"  idxTwo="8"  coef="-.9147"/><qTerm  idx="-1"  idxOne="3"  idxTwo="12"  coef="-1.401"/><qTerm  idx="-1"  idxOne="3"  idxTwo="13"  coef="-.6647"/><qTerm  idx="-1"  idxOne="3"  idxTwo="14"  coef="1.3818"/><qTerm  idx="-1"  idxOne="3"  idxTwo="16"  coef="-1.7065"/><qTerm  idx="-1"  idxOne="3"  idxTwo="17"  coef="-.2181"/><qTerm  idx="-1"  idxOne="3"  idxTwo="20"  coef="-1.1308"/><qTerm  idx="-1"  idxOne="3"  idxTwo="21"  coef="-.5214"/><qTerm  idx="-1"  idxOne="3"  idxTwo="22"  coef=".2676"/><qTerm  idx="-1"  idxOne="3"  idxTwo="25"  coef="-.8368"/><qTerm  idx="-1"  idxOne="3"  idxTwo="30"  coef="1.8189"/><qTerm  idx="-1"  idxOne="3"  idxTwo="32"  coef="-.3363"/><qTerm  idx="-1"  idxOne="3"  idxTwo="34"  coef="1.4851"/><qTerm  idx="-1"  idxOne="3"  idxTwo="35"  coef="-.6326"/><qTerm  idx="-1"  idxOne="3"  idxTwo="36"  coef="1.2022"/><qTerm  idx="-1"  idxOne="3"  idxTwo="37"  coef="-7.63e-2"/><qTerm  idx="-1"  idxOne="3"  idxTwo="39"  coef="-1.0554"/><qTerm  idx="-1"  idxOne="4"  idxTwo="4"  coef="-1.6016"/><qTerm  idx="-1"  idxOne="4"  idxTwo="5"  coef="1.221"/><qTerm  idx="-1"  idxOne="4"  idxTwo="6"  coef="1.9292"/><qTerm  idx="-1"  idxOne="4"  idxTwo="7"  coef="-.4019"/><qTerm  idx="-1"  idxOne="4"  idxTwo="8"  coef="-1.1258"/><qTerm  idx="-1"  idxOne="4"  idxTwo="12"  coef=".6078"/><qTerm  idx="-1"  idxOne="4"  idxTwo="14"  coef="1.0342"/><qTerm  idx="-1"  idxOne="4"  idxTwo="16"  coef=".9372"/><qTerm  idx="-1"  idxOne="4"  idxTwo="24"  coef="-.5724"/><qTerm  idx="-1"  idxOne="4"  idxTwo="25"  coef="-1.8679"/><qTerm  idx="-1"  idxOne="4"  idxTwo="26"  coef="-1.2882"/><qTerm  idx="-1"  idxOne="4"  idxTwo="27"  coef="-1.987"/><qTerm  idx="-1"  idxOne="4"  idxTwo="29"  coef=".6342"/><qTerm  idx="-1"  idxOne="4"  idxTwo="32"  coef="-1.0532"/><qTerm  idx="-1"  idxOne="4"  idxTwo="38"  coef=".2132"/><qTerm  idx="-1"  idxOne="5"  idxTwo="5"  coef="1.2032"/><qTerm  idx="-1"  idxOne="5"  idxTwo="10"  coef="-.147"/><qTerm  idx="-1"  idxOne="5"  idxTwo="12"  coef="-1.2235"/><qTerm  idx="-1"  idxOne="5"  idxTwo="13"  coef="1.3529"/><qTerm  idx="-1"  idxOne="5"  idxTwo="14"  coef="1.8817"/><qTerm  idx="-1"  idxOne="5"  idxTwo="17"  coef="-.4404"/><qTerm  idx="-1"  idxOne="5"  idxTwo="19"  coef=".6945"/><qTerm  idx="-1"  idxOne="5"  idxTwo="22"  coef="-1.6853"/><qTerm  idx="-1"  idxOne="5"  idxTwo="26"  coef=".6649"/><qTerm  idx="-1"  idxOne="5"  idxTwo="31"  coef=".1454"/><qTerm  idx="-1"  idxOne="5"  idxTwo="34"  coef="-.6869"/><qTerm  idx="-1"  idxOne="6"  idxTwo="7"  coef="1.6831"/><qTerm  idx="-1"  idxOne="6"  idxTwo="8"  coef="-1.744"/><qTerm  idx="-1"  idxOne="6"  idxTwo="10"  coef="-1.463"/><qTerm  idx="-1"  idxOne="6"  idxTwo="11"  coef="-.2387"/><qTerm  idx="-1"  idxOne="6"  idxTwo="12"  coef=".8389"/><qTerm  idx="-1"  idxOne="6"  idxTwo="13"  coef=".5917"/><qTerm  idx="-1"  idxOne="6"  idxTwo="14"  coef="-1.7806"/><qTerm  idx="-1"  idxOne="6"  idxTwo="15"  coef="1.3869"/><qTerm  idx="-1"  idxOne="6"  idxTwo="16"  coef=".9338"/><qTerm  idx="-1"  idxOne="6"  idxTwo="18"  coef="-.4751"/><qTerm  idx="-1"  idxOne="6"  idxTwo="21"  coef="-1.4985"/><qTerm  idx="-1"  idxOne="6"  idxTwo="26"  coef="1.2102"/><qTerm  idx="-1"  idxOne="6"  idxTwo="27"  coef=".545"/><qTerm  idx="-1"  idxOne="6"  idxTwo="28"  coef="1.9241"/><qTerm  idx="-1"  idxOne="6"  idxTwo="32"  coef="9.82e-2"/><qTerm  idx="-1"  idxOne="6"  idxTwo="34"  coef="1.9512"/><qTerm  idx="-1"  idxOne="6"  idxTwo="37"  coef=".9811"/><qTerm  idx="-1"  idxOne="6"  idxTwo="38"  coef=".8963"/><qTerm  idx="-1"  idxOne="7"  idxTwo="8"  coef=".9101"/><qTerm  idx="-1"  idxOne="7"  idxTwo="9"  coef=".6269"/><qTerm  idx="-1"  idxOne="7"  idxTwo="10"  coef="1.1917"/><qTerm  idx="-1"  idxOne="7"  idxTwo="11"  coef="-6.22e-2"/><qTerm  idx="-1"  idxOne="7"  idxTwo="13"  coef="1.6307"/><qTerm  idx="-1"  idxOne="7"  idxTwo="14"  coef=".7136"/><qTerm  idx="-1"  idxOne="7"  idxTwo="15"  coef=".3221"/><qTerm  idx="-1"  idxOne="7"  idxTwo="17"  coef="-.1014"/><qTerm  idx="-1"  idxOne="7"  idxTwo="18"  coef="-.8089"/><qTerm  idx="-1"  idxOne="7"  idxTwo="19"  coef="-1.1925"/><qTerm  idx="-1"  idxOne="7"  idxTwo="21"  coef="1.8959"/><qTerm  idx="-1"  idxOne="7"  idxTwo="22"  coef="6.18e-2"/><qTerm  idx="-1"  idxOne="7"  idxTwo="23"  coef="-.6163"/><qTerm  idx="-1"  idxOne="7"  idxTwo="25"  coef="1.7855"/><qTerm  idx="-1"  idxOne="7"  idxTwo="26"  coef="-1.7466"/><qTerm  idx="-1"  idxOne="7"  idxTwo="27"  coef="1.3426"/><qTerm  idx="-1"  idxOne="7"  idxTwo="28"  coef="1.0832"/><qTerm  idx="-1"  idxOne="7"  idxTwo="29"  coef="1.6793"/><qTerm  idx="-1"  idxOne="7"  idxTwo="30"  coef="1.9807"/><qTerm  idx="-1"  idxOne="7"  idxTwo="34"  coef="-.4621"/><qTerm  idx="-1"  idxOne="7"  idxTwo="37"  coef="-1.2494"/><qTerm  idx="-1"  idxOne="7"  idxTwo="38"  coef="-.6044"/><qTerm  idx="-1"  idxOne="7"  idxTwo="39"  coef="-1.8592"/><qTerm  idx="-1"  idxOne="8"  idxTwo="9"  coef="1.9433"/><qTerm  idx="-1"  idxOne="8"  idxTwo="13"  coef="-1.1308"/><qTerm  idx="-1"  idxOne="8"  idxTwo="14"  coef="-1.609"/><qTerm  idx="-1"  idxOne="8"  idxTwo="17"  coef="-1.6944"/><qTerm  idx="-1"  idxOne="8"  idxTwo="21"  coef="1.6661"/><qTerm  idx="-1"  idxOne="8"  idxTwo="23"  coef=".6523"/><qTerm  idx="-1"  idxOne="8"  idxTwo="24"  coef="1.3304"/><qTerm  idx="-1"  idxOne="8"  idxTwo="27"  coef="-1.9637"/><qTerm  idx="-1"  idxOne="8"  idxTwo="28"  coef="-1.2865"/><qTerm  idx="-1"  idxOne="8"  idxTwo="32"  coef="1.4813"/><qTerm  idx="-1"  idxOne="8"  idxTwo="34"  coef="5.74e-2"/><qTerm  idx="-1"  idxOne="8"  idxTwo="35"  coef="-6.79e-2"/><qTerm  idx="-1"  idxOne="8"  idxTwo="38"  coef="-.6173"/><qTerm  idx="-1"  idxOne="9"  idxTwo="11"  coef=".6117"/><qTerm  idx="-1"  idxOne="9"  idxTwo="12"  coef="-.2905"/><qTerm  idx="-1"  idxOne="9"  idxTwo="13"  coef="1.5804"/><qTerm  idx="-1"  idxOne="9"  idxTwo="15"  coef="-1.7274"/><qTerm  idx="-1"  idxOne="9"  idxTwo="16"  coef="2.52e-2"/><qTerm  idx="-1"  idxOne="9"  idxTwo="17"  coef=".4039"/><qTerm  idx="-1"  idxOne="9"  idxTwo="18"  coef="1.0101"/><qTerm  idx="-1"  idxOne="9"  idxTwo="19"  coef=".368"/><qTerm  idx="-1"  idxOne="9"  idxTwo="21"  coef="1.4017"/><qTerm  idx="-1"  idxOne="9"  idxTwo="24"  coef=".2127"/><qTerm  idx="-1"  idxOne="9"  idxTwo="25"  coef="-.9109"/><qTerm  idx="-1"  idxOne="9"  idxTwo="27"  coef=".1255"/><qTerm  idx="-1"  idxOne="9"  idxTwo="30"  coef=".8597"/><qTerm  idx="-1"  idxOne="9"  idxTwo="31"  coef="-1.9584"/><qTerm  idx="-1"  idxOne="9"  idxTwo="33"  coef="-1.95"/><qTerm  idx="-1"  idxOne="9"  idxTwo="35"  coef="-.4444"/><qTerm  idx="-1"  idxOne="9"  idxTwo="36"  coef="-1.941"/><qTerm  idx="-1"  idxOne="10"  idxTwo="11"  coef="1.8585"/><qTerm  idx="-1"  idxOne="10"  idxTwo="16"  coef="-1.5968"/><qTerm  idx="-1"  idxOne="10"  idxTwo="17"  coef="-1.8061"/><qTerm  idx="-1"  idxOne="10"  idxTwo="19"  coef="-1.5965"/><qTerm  idx="-1"  idxOne="10"  idxTwo="20"  coef="-.385"/><qTerm  idx="-1"  idxOne="10"  idxTwo="21"  coef=".2651"/><qTerm  idx="-1"  idxOne="10"  idxTwo="22"  coef="1.5549"/><qTerm  idx="-1"  idxOne="10"  idxTwo="26"  coef="1.0811"/><qTerm  idx="-1"  idxOne="10"  idxTwo="28"  coef="1.1177"/><qTerm  idx="-1"  idxOne="10"  idxTwo="29"  coef="1.2356"/><qTerm  idx="-1"  idxOne="10"  idxTwo="33"  coef=".4982"/><qTerm  idx="-1"  idxOne="10"  idxTwo="35"  coef="-1.5416"/><qTerm  idx="-1"  idxOne="10"  idxTwo="37"  coef="-1.2167"/><qTerm  idx="-1"  idxOne="11"  idxTwo="11"  coef="1.7315"/><qTerm  idx="-1"  idxOne="11"  idxTwo="12"  coef="-.665"/><qTerm  idx="-1"  idxOne="11"  idxTwo="13"  coef=".9531"/><qTerm  idx="-1"  idxOne="11"  idxTwo="16"  coef="1.2908"/><qTerm  idx="-1"  idxOne="11"  idxTwo="21"  coef="-.7975"/><qTerm  idx="-1"  idxOne="11"  idxTwo="22"  coef=".5158"/><qTerm  idx="-1"  idxOne="11"  idxTwo="27"  coef="-1.1392"/><qTerm  idx="-1"  idxOne="11"  idxTwo="28"  coef="-.8318"/><qTerm  idx="-1"  idxOne="11"  idxTwo="29"  coef=".8073"/><qTerm  idx="-1"  idxOne="11"  idxTwo="31"  coef=".4567"/><qTerm  idx="-1"  idxOne="11"  idxTwo="33"  coef="-.5873"/><qTerm  idx="-1"  idxOne="11"  idxTwo="34"  coef="-.4609"/><qTerm  idx="-1"  idxOne="11"  idxTwo="36"  coef="-.7905"/><qTerm  idx="-1"  idxOne="11"  idxTwo="38"  coef="1.6473"/><qTerm  idx="-1"  idxOne="11"  idxTwo="39"  coef="-1.2389"/><qTerm  idx="-1"  idxOne="12"  idxTwo="13"  coef=".3938"/><qTerm  idx="-1"  idxOne="12"  idxTwo="15"  coef=".186"/><qTerm  idx="-1"  idxOne="12"  idxTwo="16"  coef="1.5638"/><qTerm  idx="-1"  idxOne="12"  idxTwo="17"  coef="1.9115"/><qTerm  idx="-1"  idxOne="12"  idxTwo="18"  coef="-.4004"/><qTerm  idx="-1"  idxOne="12"  idxTwo="20"  coef="1.4087"/><qTerm  idx="-1"  idxOne="12"  idxTwo="21"  coef="1.5218"/><qTerm  idx="-1"  idxOne="12"  idxTwo="23"  coef=".3229"/><qTerm  idx="-1"  idxOne="12"  idxTwo="25"  coef="1.1707"/><qTerm  idx="-1"  idxOne="12"  idxTwo="26"  coef=".183"/><qTerm  idx="-1"  idxOne="12"  idxTwo="27"  coef="-1.9261"/><qTerm  idx="-1"  idxOne="12"  idxTwo="29"  coef="-.5233"/><qTerm  idx="-1"  idxOne="12"  idxTwo="32"  coef="-.8804"/><qTerm  idx="-1"  idxOne="12"  idxTwo="33"  coef=".4486"/><qTerm  idx="-1"  idxOne="12"  idxTwo="34"  coef="-.876"/><qTerm  idx="-1"  idxOne="12"  idxTwo="35"  coef="-.3629"/><qTerm  idx="-1"  idxOne="12"  idxTwo="36"  coef="1.2742"/><qTerm  idx="-1"  idxOne="12"  idxTwo="38"  coef=".173"/><qTerm  idx="-1"  idxOne="13"  idxTwo="14"  coef="-.1795"/><qTerm  idx="-1"  idxOne="13"  idxTwo="16"  coef="1.4617"/><qTerm  idx="-1"  idxOne="13"  idxTwo="20"  coef=".5593"/><qTerm  idx="-1"  idxOne="13"  idxTwo="23"  coef="-1.5996"/><qTerm  idx="-1"  idxOne="13"  idxTwo="25"  coef="-1.1989"/><qTerm  idx="-1"  idxOne="13"  idxTwo="26"  coef="1.7109"/><qTerm  idx="-1"  idxOne="13"  idxTwo="27"  coef="-.736"/><qTerm  idx="-1"  idxOne="13"  idxTwo="29"  coef="-.8242"/><qTerm  idx="-1"  idxOne="13"  idxTwo="30"  coef=".4142"/><qTerm  idx="-1"  idxOne="13"  idxTwo="33"  coef="1.3516"/><qTerm  idx="-1"  idxOne="13"  idxTwo="34"  coef="-1.9898"/><qTerm  idx="-1"  idxOne="14"  idxTwo="14"  coef=".6272"/><qTerm  idx="-1"  idxOne="14"  idxTwo="17"  coef="-.1213"/><qTerm  idx="-1"  idxOne="14"  idxTwo="20"  coef="-1.9714"/><qTerm  idx="-1"  idxOne="14"  idxTwo="21"  coef="1.2032"/><qTerm  idx="-1"  idxOne="14"  idxTwo="22"  coef="1.9671"/><qTerm  idx="-1"  idxOne="14"  idxTwo="23"  coef="-6.9e-3"/><qTerm  idx="-1"  idxOne="14"  idxTwo="24"  coef="-.5937"/><qTerm  idx="-1"  idxOne="14"  idxTwo="25"  coef="-1.5286"/><qTerm  idx="-1"  idxOne="14"  idxTwo="27"  coef="-.8896"/><qTerm  idx="-1"  idxOne="14"  idxTwo="28"  coef="-.623"/><qTerm  idx="-1"  idxOne="14"  idxTwo="29"  coef="1.9277"/><qTerm  idx="-1"  idxOne="14"  idxTwo="34"  coef="1.4315"/><qTerm  idx="-1"  idxOne="14"  idxTwo="35"  coef="-1.7161"/><qTerm  idx="-1"  idxOne="14"  idxTwo="37"  coef="-1.6166"/><qTerm  idx="-1"  idxOne="14"  idxTwo="38"  coef="1.736"/><qTerm  idx="-1"  idxOne="15"  idxTwo="19"  coef="-1.9256"/><qTerm  idx="-1"  idxOne="15"  idxTwo="20"  coef="-1.0732"/><qTerm  idx="-1"  idxOne="15"  idxTwo="21"  coef=".5271"/><qTerm  idx="-1"  idxOne="15"  idxTwo="23"  coef="1.774"/><qTerm  idx="-1"  idxOne="15"  idxTwo="24"  coef="-1.4929"/><qTerm  idx="-1"  idxOne="15"  idxTwo="25"  coef=".228"/><qTerm  idx="-1"  idxOne="15"  idxTwo="26"  coef="-1.3944"/><qTerm  idx="-1"  idxOne="15"  idxTwo="27"  coef="-1.868"/><qTerm  idx="-1"  idxOne="15"  idxTwo="28"  coef="-1.0677"/><qTerm  idx="-1"  idxOne="15"  idxTwo="30"  coef="-.4062"/><qTerm  idx="-1"  idxOne="15"  idxTwo="32"  coef="-1.5217"/><qTerm  idx="-1"  idxOne="15"  idxTwo="35"  coef="-1.5451"/><qTerm  idx="-1"  idxOne="15"  idxTwo="36"  coef="-.2753"/><qTerm  idx="-1"  idxOne="16"  idxTwo="19"  coef="-1.5326"/><qTerm  idx="-1"  idxOne="16"  idxTwo="20"  coef="1.6145"/><qTerm  idx="-1"  idxOne="16"  idxTwo="22"  coef="-1.9906"/><qTerm  idx="-1"  idxOne="16"  idxTwo="23"  coef="1.9916"/><qTerm  idx="-1"  idxOne="16"  idxTwo="25"  coef="-1.2291"/><qTerm  idx="-1"  idxOne="16"  idxTwo="27"  coef="1.6038"/><qTerm  idx="-1"  idxOne="16"  idxTwo="29"  coef=".114"/><qTerm  idx="-1"  idxOne="16"  idxTwo="30"  coef=".1859"/><qTerm  idx="-1"  idxOne="16"  idxTwo="33"  coef="-.8702"/><qTerm  idx="-1"  idxOne="16"  idxTwo="35"  coef="-1.9353"/><qTerm  idx="-1"  idxOne="16"  idxTwo="39"  coef="1.8835"/><qTerm  idx="-1"  idxOne="17"  idxTwo="21"  coef="1.3273"/><qTerm  idx="-1"  idxOne="17"  idxTwo="22"  coef="-.1012"/><qTerm  idx="-1"  idxOne="17"  idxTwo="24"  coef="-1.1794"/><qTerm  idx="-1"  idxOne="17"  idxTwo="25"  coef="-1.1361"/><qTerm  idx="-1"  idxOne="17"  idxTwo="29"  coef="-.1796"/><qTerm  idx="-1"  idxOne="17"  idxTwo="30"  coef="-1.5197"/><qTerm  idx="-1"  idxOne="17"  idxTwo="31"  coef="1.3914"/><qTerm  idx="-1"  idxOne="17"  idxTwo="32"  coef="1.6911"/><qTerm  idx="-1"  idxOne="17"  idxTwo="34"  coef=".9506"/><qTerm  idx="-1"  idxOne="17"  idxTwo="36"  coef="1.9662"/><qTerm  idx="-1"  idxOne="17"  idxTwo="38"  coef="-.4045"/><qTerm  idx="-1"  idxOne="18"  idxTwo="19"  coef="9.53e-2"/><qTerm  idx="-1"  idxOne="18"  idxTwo="21"  coef=".6002"/><qTerm  idx="-1"  idxOne="18"  idxTwo="25"  coef=".5468"/><qTerm  idx="-1"  idxOne="18"  idxTwo="26"  coef="1.5904"/><qTerm  idx="-1"  idxOne="18"  idxTwo="28"  coef="-.7838"/><qTerm  idx="-1"  idxOne="18"  idxTwo="30"  coef="1.9465"/><qTerm  idx="-1"  idxOne="18"  idxTwo="32"  coef=".8101"/><qTerm  idx="-1"  idxOne="18"  idxTwo="33"  coef=".8208"/><qTerm  idx="-1"  idxOne="18"  idxTwo="34"  coef="-1.8108"/><qTerm  idx="-1"  idxOne="18"  idxTwo="35"  coef=".5197"/><qTerm  idx="-1"  idxOne="18"  idxTwo="37"  coef="1.4185"/><qTerm  idx="-1"  idxOne="18"  idxTwo="38"  coef="1.1916"/><qTerm  idx="-1"  idxOne="19"  idxTwo="21"  coef="-.7805"/><qTerm  idx="-1"  idxOne="19"  idxTwo="23"  coef="1.477"/><qTerm  idx="-1"  idxOne="19"  idxTwo="27"  coef="1.2687"/><qTerm  idx="-1"  idxOne="19"  idxTwo="30"  coef="1.7016"/><qTerm  idx="-1"  idxOne="19"  idxTwo="33"  coef="-.5713"/><qTerm  idx="-1"  idxOne="19"  idxTwo="37"  coef="1.8255"/><qTerm  idx="-1"  idxOne="19"  idxTwo="38"  coef="-1.8227"/><qTerm  idx="-1"  idxOne="19"  idxTwo="39"  coef="1.9684"/><qTerm  idx="-1"  idxOne="20"  idxTwo="21"  coef=".1926"/><qTerm  idx="-1"  idxOne="20"  idxTwo="22"  coef=".1038"/><qTerm  idx="-1"  idxOne="20"  idxTwo="23"  coef="-.3312"/><qTerm  idx="-1"  idxOne="20"  idxTwo="24"  coef=".2895"/><qTerm  idx="-1"  idxOne="20"  idxTwo="25"  coef="-1.8623"/><qTerm  idx="-1"  idxOne="20"  idxTwo="26"  coef=".1527"/><qTerm  idx="-1"  idxOne="20"  idxTwo="27"  coef="1.0293"/><qTerm  idx="-1"  idxOne="20"  idxTwo="29"  coef="1.5276"/><qTerm  idx="-1"  idxOne="20"  idxTwo="30"  coef="-.2869"/><qTerm  idx="-1"  idxOne="20"  idxTwo="31"  coef="1.7043"/><qTerm  idx="-1"  idxOne="20"  idxTwo="32"  coef="-5.61e-2"/><qTerm  idx="-1"  idxOne="20"  idxTwo="36"  coef="-.4442"/><qTerm  idx="-1"  idxOne="21"  idxTwo="24"  coef=".2234"/><qTerm  idx="-1"  idxOne="21"  idxTwo="27"  coef="1.267"/><qTerm  idx="-1"  idxOne="21"  idxTwo="28"  coef="-1.36e-2"/><qTerm  idx="-1"  idxOne="21"  idxTwo="29"  coef=".4509"/><qTerm  idx="-1"  idxOne="21"  idxTwo="30"  coef="-1.408"/><qTerm  idx="-1"  idxOne="21"  idxTwo="35"  coef="-.6828"/><qTerm  idx="-1"  idxOne="21"  idxTwo="36"  coef=".8376"/><qTerm  idx="-1"  idxOne="21"  idxTwo="37"  coef="-.1412"/><qTerm  idx="-1"  idxOne="21"  idxTwo="38"  coef="1.3995"/><qTerm  idx="-1"  idxOne="22"  idxTwo="26"  coef="-1.5502"/><qTerm  idx="-1"  idxOne="22"  idxTwo="27"  coef="-.2426"/><qTerm  idx="-1"  idxOne="22"  idxTwo="28"  coef="-.7216"/><qTerm  idx="-1"  idxOne="22"  idxTwo="34"  coef="-1.5189"/><qTerm  idx="-1"  idxOne="22"  idxTwo="36"  coef="-.1156"/><qTerm  idx="-1"  idxOne="22"  idxTwo="37"  coef=".3296"/><qTerm  idx="-1"  idxOne="22"  idxTwo="38"  coef="1.385"/><qTerm  idx="-1"  idxOne="23"  idxTwo="26"  coef=".396"/><qTerm  idx="-1"  idxOne="23"  idxTwo="29"  coef=".1925"/><qTerm  idx="-1"  idxOne="23"  idxTwo="30"  coef="-.8182"/><qTerm  idx="-1"  idxOne="23"  idxTwo="34"  coef=".8657"/><qTerm  idx="-1"  idxOne="23"  idxTwo="35"  coef="1.9494"/><qTerm  idx="-1"  idxOne="23"  idxTwo="36"  coef="-.3089"/><qTerm  idx="-1"  idxOne="23"  idxTwo="37"  coef="1.3979"/><qTerm  idx="-1"  idxOne="24"  idxTwo="25"  coef="-.1289"/><qTerm  idx="-1"  idxOne="24"  idxTwo="26"  coef=".6355"/><qTerm  idx="-1"  idxOne="24"  idxTwo="29"  coef="-1.8145"/><qTerm  idx="-1"  idxOne="24"  idxTwo="31"  coef="-1.5884"/><qTerm  idx="-1"  idxOne="24"  idxTwo="32"  coef=".7638"/><qTerm  idx="-1"  idxOne="24"  idxTwo="33"  coef="1.5872"/><qTerm  idx="-1"  idxOne="24"  idxTwo="34"  coef=".5506"/><qTerm  idx="-1"  idxOne="24"  idxTwo="35"  coef="-.9093"/><qTerm  idx="-1"  idxOne="24"  idxTwo="37"  coef="-1.4427"/><qTerm  idx="-1"  idxOne="25"  idxTwo="25"  coef="-1.0349"/><qTerm  idx="-1"  idxOne="25"  idxTwo="28"  coef=".7858"/><qTerm  idx="-1"  idxOne="25"  idxTwo="29"  coef=".5234"/><qTerm  idx="-1"  idxOne="25"  idxTwo="30"  coef=".1414"/><qTerm  idx="-1"  idxOne="25"  idxTwo="31"  coef=".7846"/><qTerm  idx="-1"  idxOne="25"  idxTwo="33"  coef="-1.0721"/><qTerm  idx="-1"  idxOne="25"  idxTwo="35"  coef="-1.6305"/><qTerm  idx="-1"  idxOne="25"  idxTwo="36"  coef="1.0843"/><qTerm  idx="-1"  idxOne="25"  idxTwo="38"  coef="1.5167"/><qTerm  idx="-1"  idxOne="25"  idxTwo="39"  coef="-1.2112"/><qTerm  idx="-1"  idxOne="26"  idxTwo="29"  coef="-1.1326"/><qTerm  idx="-1"  idxOne="26"  idxTwo="30"  coef="-.7758"/><qTerm  idx="-1"  idxOne="26"  idxTwo="31"  coef="1.4162"/><qTerm  idx="-1"  idxOne="26"  idxTwo="33"  coef="-1.5754"/><qTerm  idx="-1"  idxOne="26"  idxTwo="36"  coef="1.5388"/><qTerm  idx="-1"  idxOne="26"  idxTwo="37"  coef="1.4211"/><qTerm  idx="-1"  idxOne="26"  idxTwo="38"  coef="-.5253"/><qTerm  idx="-1"  idxOne="26"  idxTwo="39"  coef=".771"/><qTerm  idx="-1"  idxOne="27"  idxTwo="27"  coef="6.68e-2"/><qTerm  idx="-1"  idxOne="27"  idxTwo="28"  coef="-.3085"/><qTerm  idx="-1"  idxOne="27"  idxTwo="29"  coef="-1.2883"/><qTerm  idx="-1"  idxOne="27"  idxTwo="32"  coef="-.6091"/><qTerm  idx="-1"  idxOne="27"  idxTwo="33"  coef="1.895"/><qTerm  idx="-1"  idxOne="27"  idxTwo="35"  coef="5.68e-2"/><qTerm  idx="-1"  idxOne="27"  idxTwo="36"  coef="-.1727"/><qTerm  idx="-1"  idxOne="27"  idxTwo="37"  coef=".5447"/><qTerm  idx="-1"  idxOne="27"  idxTwo="38"  coef="-.6271"/><qTerm  idx="-1"  idxOne="27"  idxTwo="39"  coef="1.2609"/><qTerm  idx="-1"  idxOne="28"  idxTwo="29"  coef="-.5306"/><qTerm  idx="-1"  idxOne="28"  idxTwo="30"  coef=".5793"/><qTerm  idx="-1"  idxOne="28"  idxTwo="31"  coef=".1578"/><qTerm  idx="-1"  idxOne="28"  idxTwo="32"  coef="1.0419"/><qTerm  idx="-1"  idxOne="28"  idxTwo="33"  coef="-1.6136"/><qTerm  idx="-1"  idxOne="28"  idxTwo="34"  coef="1.8647"/><qTerm  idx="-1"  idxOne="28"  idxTwo="37"  coef="-1.2948"/><qTerm  idx="-1"  idxOne="28"  idxTwo="38"  coef="-.4471"/><qTerm  idx="-1"  idxOne="29"  idxTwo="30"  coef="-1.2751"/><qTerm  idx="-1"  idxOne="29"  idxTwo="31"  coef="-.2972"/><qTerm  idx="-1"  idxOne="29"  idxTwo="32"  coef=".965"/><qTerm  idx="-1"  idxOne="29"  idxTwo="33"  coef="-.7182"/><qTerm  idx="-1"  idxOne="29"  idxTwo="34"  coef="-1.2054"/><qTerm  idx="-1"  idxOne="29"  idxTwo="35"  coef="-1.8503"/><qTerm  idx="-1"  idxOne="29"  idxTwo="36"  coef="1.4448"/><qTerm  idx="-1"  idxOne="30"  idxTwo="30"  coef="1.1365"/><qTerm  idx="-1"  idxOne="30"  idxTwo="33"  coef="-.7744"/><qTerm  idx="-1"  idxOne="30"  idxTwo="34"  coef=".5084"/><qTerm  idx="-1"  idxOne="30"  idxTwo="36"  coef="-1.78"/><qTerm  idx="-1"  idxOne="31"  idxTwo="31"  coef="1.8355"/><qTerm  idx="-1"  idxOne="31"  idxTwo="32"  coef=".9625"/><qTerm  idx="-1"  idxOne="31"  idxTwo="34"  coef="-1.0935"/><qTerm  idx="-1"  idxOne="31"  idxTwo="35"  coef="1.8237"/><qTerm  idx="-1"  idxOne="31"  idxTwo="37"  coef="-1.7085"/><qTerm  idx="-1"  idxOne="31"  idxTwo="38"  coef=".6178"/><qTerm  idx="-1"  idxOne="32"  idxTwo="33"  coef="-.8206"/><qTerm  idx="-1"  idxOne="32"  idxTwo="36"  coef="3.9e-2"/><qTerm  idx="-1"  idxOne="33"  idxTwo="34"  coef=".7006"/><qTerm  idx="-1"  idxOne="33"  idxTwo="35"  coef="1.1857"/><qTerm  idx="-1"  idxOne="33"  idxTwo="38"  coef="1.3788"/><qTerm  idx="-1"  idxOne="33"  idxTwo="39"  coef="1.8085"/><qTerm  idx="-1"  idxOne="34"  idxTwo="36"  coef="1.6095"/><qTerm  idx="-1"  idxOne="34"  idxTwo="38"  coef=".5541"/><qTerm  idx="-1"  idxOne="35"  idxTwo="37"  coef="-8.03e-2"/><qTerm  idx="-1"  idxOne="35"  idxTwo="38"  coef="-.5893"/><qTerm  idx="-1"  idxOne="36"  idxTwo="38"  coef="-.4858"/><qTerm  idx="-1"  idxOne="38"  idxTwo="39"  coef="-.6968"/></quadraticCoefficients></instanceData></osil>
